Optimize a model with 1601 rows, 1680 columns and 10608 nonzeros
Model has 1 quadratic constraint
Coefficient statistics:
  Matrix range    [1e+00, 4e+01]
  Objective range [1e+02, 7e+02]
  Bounds range    [1e+00, 4e+01]
  RHS range       [1e+00, 4e+01]
Presolve removed 0 rows and 42 columns
Presolve time: 0.03s
Presolved: 3123 rows, 3159 columns, 16692 nonzeros
Variable types: 0 continuous, 3159 integer (3120 binary)

Root relaxation: objective 2.020000e+02, 41 iterations, 0.01 seconds

    Nodes    |    Current Node    |     Objective Bounds      |     Work
 Expl Unexpl |  Obj  Depth IntInf | Incumbent    BestBd   Gap | It/Node Time

     0     0  202.00000    0   22          -  202.00000      -     -    0s
     0     0  202.00000    0   22          -  202.00000      -     -    0s
     0     0  202.00000    0   22          -  202.00000      -     -    0s
     0     0  202.00000    0   23          -  202.00000      -     -    0s
     0     0  202.00000    0   23          -  202.00000      -     -    0s
     0     0  202.00000    0   23          -  202.00000      -     -    0s
     0     0  202.00000    0   24          -  202.00000      -     -    0s
     0     0  202.00000    0   24          -  202.00000      -     -    0s
H    0     0                    2564.0000000  202.00000  92.1%     -    0s
     0     2  202.00000    0   24 2564.00000  202.00000  92.1%     -    1s
H 1026  1026                    2524.0000000  202.00000  92.0%   1.3    4s
  1053  1055  202.00000 1053   35 2524.00000  202.00000  92.0%   1.3    5s
H 1134  1134                    2365.0000000  202.00000  91.5%   1.3    6s
H 1503  1400                    2116.0000000 1977.51444  6.54%   2.7    8s
* 1724  1282              23    2082.0000000 2013.90125  3.27%   4.1    9s

Cutting planes:
  Learned: 12
  Implied bound: 6

Explored 1831 nodes (9741 simplex iterations) in 9.48 seconds
Thread count was 1 (of 4 available processors)

Optimal solution found (tolerance 1.00e-04)
Best objective 2.082000000000e+03, best bound 2.082000000000e+03, gap 0.0%
2082
(0,10) (35,0) (4,2) (2,7) (3,4) (11,3) (18,5) (5,35) (7,6) (6,29) (10,8) (8,11) (12,9) (14,9) (29,12) (14,18) 
